p cnf 200 1110
-101 -36 0
-101 20 0
-101 -93 0
-101 17 0
-101 18 0
-101 91 0
-101 39 0
-101 -7 0
-101 37 0
-101 -46 0
101 36 -20 93 -17 -18 -91 -39 7 -37 46 0
-102 76 0
-102 11 0
-102 57 0
-102 -75 0
-102 91 0
-102 -93 0
-102 -73 0
-102 -80 0
-102 1 0
-102 -20 0
102 -76 -11 -57 75 -91 93 73 80 -1 20 0
-103 81 0
-103 -1 0
-103 -94 0
-103 -44 0
-103 90 0
-103 -13 0
-103 39 0
-103 -82 0
-103 -2 0
-103 -5 0
103 -81 1 94 44 -90 13 -39 82 2 5 0
-104 -6 0
-104 -41 0
-104 40 0
-104 -31 0
-104 -88 0
-104 -68 0
-104 24 0
-104 -48 0
-104 -9 0
-104 -73 0
104 6 41 -40 31 88 68 -24 48 9 73 0
-105 -64 0
-105 -86 0
-105 58 0
-105 48 0
-105 -19 0
-105 -74 0
-105 -98 0
-105 -81 0
-105 62 0
-105 -54 0
105 64 86 -58 -48 19 74 98 81 -62 54 0
-106 -18 0
-106 32 0
-106 -9 0
-106 88 0
-106 96 0
-106 -24 0
-106 10 0
-106 -80 0
-106 99 0
-106 59 0
106 18 -32 9 -88 -96 24 -10 80 -99 -59 0
-107 22 0
-107 -89 0
-107 24 0
-107 43 0
-107 6 0
-107 -97 0
-107 -58 0
-107 20 0
-107 98 0
-107 -48 0
107 -22 89 -24 -43 -6 97 58 -20 -98 48 0
-108 -11 0
-108 27 0
-108 97 0
-108 -84 0
-108 36 0
-108 88 0
-108 58 0
-108 43 0
-108 37 0
-108 -9 0
108 11 -27 -97 84 -36 -88 -58 -43 -37 9 0
-109 -72 0
-109 95 0
-109 -93 0
-109 -36 0
-109 -71 0
-109 -96 0
-109 38 0
-109 88 0
-109 27 0
-109 -41 0
109 72 -95 93 36 71 96 -38 -88 -27 41 0
-110 22 0
-110 28 0
-110 56 0
-110 -7 0
-110 -98 0
-110 54 0
-110 100 0
-110 -68 0
-110 47 0
-110 -76 0
110 -22 -28 -56 7 98 -54 -100 68 -47 76 0
101 102 103 104 105 106 107 108 109 110 0
-111 -87 0
-111 -64 0
-111 -29 0
-111 91 0
-111 -45 0
-111 50 0
-111 82 0
-111 89 0
-111 -19 0
-111 -90 0
111 87 64 29 -91 45 -50 -82 -89 19 90 0
-112 -83 0
-112 -100 0
-112 57 0
-112 60 0
-112 -34 0
-112 -98 0
-112 67 0
-112 -37 0
-112 -89 0
-112 90 0
112 83 100 -57 -60 34 98 -67 37 89 -90 0
-113 55 0
-113 -67 0
-113 -65 0
-113 -95 0
-113 39 0
-113 86 0
-113 -22 0
-113 35 0
-113 -17 0
-113 90 0
113 -55 67 65 95 -39 -86 22 -35 17 -90 0
-114 -73 0
-114 20 0
-114 53 0
-114 42 0
-114 -36 0
-114 90 0
-114 9 0
-114 -74 0
-114 37 0
-114 27 0
114 73 -20 -53 -42 36 -90 -9 74 -37 -27 0
-115 -89 0
-115 -73 0
-115 99 0
-115 97 0
-115 -23 0
-115 35 0
-115 27 0
-115 63 0
-115 15 0
-115 96 0
115 89 73 -99 -97 23 -35 -27 -63 -15 -96 0
-116 -12 0
-116 39 0
-116 43 0
-116 38 0
-116 -22 0
-116 -45 0
-116 36 0
-116 -55 0
-116 6 0
-116 -53 0
116 12 -39 -43 -38 22 45 -36 55 -6 53 0
-117 31 0
-117 8 0
-117 24 0
-117 21 0
-117 -40 0
-117 98 0
-117 -38 0
-117 -9 0
-117 -2 0
-117 -68 0
117 -31 -8 -24 -21 40 -98 38 9 2 68 0
-118 80 0
-118 -92 0
-118 17 0
-118 -31 0
-118 90 0
-118 -45 0
-118 13 0
-118 -28 0
-118 -55 0
-118 -79 0
118 -80 92 -17 31 -90 45 -13 28 55 79 0
-119 29 0
-119 93 0
-119 97 0
-119 72 0
-119 -33 0
-119 100 0
-119 -94 0
-119 54 0
-119 6 0
-119 -65 0
119 -29 -93 -97 -72 33 -100 94 -54 -6 65 0
-120 60 0
-120 84 0
-120 -82 0
-120 92 0
-120 65 0
-120 -9 0
-120 -73 0
-120 40 0
-120 76 0
-120 95 0
120 -60 -84 82 -92 -65 9 73 -40 -76 -95 0
111 112 113 114 115 116 117 118 119 120 0
-121 100 0
-121 81 0
-121 52 0
-121 -86 0
-121 -1 0
-121 -92 0
-121 -97 0
-121 -62 0
-121 -82 0
-121 69 0
121 -100 -81 -52 86 1 92 97 62 82 -69 0
-122 -92 0
-122 -91 0
-122 -37 0
-122 23 0
-122 83 0
-122 -57 0
-122 -22 0
-122 -3 0
-122 1 0
-122 87 0
122 92 91 37 -23 -83 57 22 3 -1 -87 0
-123 99 0
-123 -88 0
-123 3 0
-123 -43 0
-123 93 0
-123 -1 0
-123 60 0
-123 -18 0
-123 -48 0
-123 54 0
123 -99 88 -3 43 -93 1 -60 18 48 -54 0
-124 -29 0
-124 -22 0
-124 94 0
-124 79 0
-124 69 0
-124 -34 0
-124 56 0
-124 -3 0
-124 -97 0
-124 32 0
124 29 22 -94 -79 -69 34 -56 3 97 -32 0
-125 91 0
-125 90 0
-125 12 0
-125 71 0
-125 67 0
-125 -35 0
-125 -23 0
-125 -80 0
-125 83 0
-125 -66 0
125 -91 -90 -12 -71 -67 35 23 80 -83 66 0
-126 34 0
-126 -5 0
-126 -99 0
-126 30 0
-126 89 0
-126 -41 0
-126 72 0
-126 -88 0
-126 -67 0
-126 -9 0
126 -34 5 99 -30 -89 41 -72 88 67 9 0
-127 -55 0
-127 -53 0
-127 -62 0
-127 -21 0
-127 86 0
-127 -51 0
-127 81 0
-127 -67 0
-127 60 0
-127 45 0
127 55 53 62 21 -86 51 -81 67 -60 -45 0
-128 84 0
-128 -82 0
-128 5 0
-128 -90 0
-128 -31 0
-128 -35 0
-128 51 0
-128 65 0
-128 -86 0
-128 15 0
128 -84 82 -5 90 31 35 -51 -65 86 -15 0
-129 -46 0
-129 71 0
-129 -37 0
-129 -39 0
-129 -24 0
-129 -79 0
-129 41 0
-129 -47 0
-129 61 0
-129 -72 0
129 46 -71 37 39 24 79 -41 47 -61 72 0
-130 -58 0
-130 -95 0
-130 23 0
-130 42 0
-130 -31 0
-130 68 0
-130 34 0
-130 82 0
-130 -56 0
-130 -79 0
130 58 95 -23 -42 31 -68 -34 -82 56 79 0
121 122 123 124 125 126 127 128 129 130 0
-131 -90 0
-131 -48 0
-131 37 0
-131 -9 0
-131 -85 0
-131 24 0
-131 11 0
-131 58 0
-131 61 0
-131 -89 0
131 90 48 -37 9 85 -24 -11 -58 -61 89 0
-132 -58 0
-132 25 0
-132 -1 0
-132 -47 0
-132 59 0
-132 92 0
-132 40 0
-132 73 0
-132 -54 0
-132 -48 0
132 58 -25 1 47 -59 -92 -40 -73 54 48 0
-133 -77 0
-133 75 0
-133 30 0
-133 -28 0
-133 55 0
-133 -32 0
-133 1 0
-133 -62 0
-133 9 0
-133 -65 0
133 77 -75 -30 28 -55 32 -1 62 -9 65 0
-134 -57 0
-134 38 0
-134 66 0
-134 -28 0
-134 -71 0
-134 -96 0
-134 -25 0
-134 17 0
-134 -39 0
-134 70 0
134 57 -38 -66 28 71 96 25 -17 39 -70 0
-135 -70 0
-135 -99 0
-135 -94 0
-135 -43 0
-135 39 0
-135 -51 0
-135 -14 0
-135 -21 0
-135 -24 0
-135 60 0
135 70 99 94 43 -39 51 14 21 24 -60 0
-136 65 0
-136 31 0
-136 23 0
-136 25 0
-136 -74 0
-136 -27 0
-136 -64 0
-136 49 0
-136 2 0
-136 -41 0
136 -65 -31 -23 -25 74 27 64 -49 -2 41 0
-137 -93 0
-137 98 0
-137 3 0
-137 -1 0
-137 27 0
-137 -29 0
-137 -36 0
-137 -40 0
-137 78 0
-137 67 0
137 93 -98 -3 1 -27 29 36 40 -78 -67 0
-138 -55 0
-138 -47 0
-138 -56 0
-138 -63 0
-138 -20 0
-138 58 0
-138 -27 0
-138 9 0
-138 -68 0
-138 98 0
138 55 47 56 63 20 -58 27 -9 68 -98 0
-139 -46 0
-139 84 0
-139 4 0
-139 -11 0
-139 -99 0
-139 53 0
-139 1 0
-139 54 0
-139 -51 0
-139 -57 0
139 46 -84 -4 11 99 -53 -1 -54 51 57 0
-140 22 0
-140 -43 0
-140 55 0
-140 -13 0
-140 -37 0
-140 44 0
-140 17 0
-140 -1 0
-140 24 0
-140 92 0
140 -22 43 -55 13 37 -44 -17 1 -24 -92 0
131 132 133 134 135 136 137 138 139 140 0
-141 -87 0
-141 35 0
-141 -84 0
-141 67 0
-141 -23 0
-141 -83 0
-141 -52 0
-141 62 0
-141 53 0
-141 -99 0
141 87 -35 84 -67 23 83 52 -62 -53 99 0
-142 24 0
-142 83 0
-142 -35 0
-142 -37 0
-142 7 0
-142 -74 0
-142 -87 0
-142 85 0
-142 31 0
-142 96 0
142 -24 -83 35 37 -7 74 87 -85 -31 -96 0
-143 51 0
-143 73 0
-143 37 0
-143 -17 0
-143 -7 0
-143 34 0
-143 64 0
-143 46 0
-143 75 0
-143 11 0
143 -51 -73 -37 17 7 -34 -64 -46 -75 -11 0
-144 -53 0
-144 -86 0
-144 -4 0
-144 21 0
-144 24 0
-144 -32 0
-144 -10 0
-144 -54 0
-144 85 0
-144 -75 0
144 53 86 4 -21 -24 32 10 54 -85 75 0
-145 72 0
-145 -41 0
-145 43 0
-145 -53 0
-145 -2 0
-145 3 0
-145 -40 0
-145 85 0
-145 -78 0
-145 -64 0
145 -72 41 -43 53 2 -3 40 -85 78 64 0
-146 54 0
-146 40 0
-146 55 0
-146 42 0
-146 15 0
-146 38 0
-146 -8 0
-146 -89 0
-146 -86 0
-146 9 0
146 -54 -40 -55 -42 -15 -38 8 89 86 -9 0
-147 -46 0
-147 -65 0
-147 -11 0
-147 -41 0
-147 -21 0
-147 -22 0
-147 -95 0
-147 34 0
-147 -87 0
-147 6 0
147 46 65 11 41 21 22 95 -34 87 -6 0
-148 -93 0
-148 -85 0
-148 -68 0
-148 -14 0
-148 -97 0
-148 -39 0
-148 -90 0
-148 -16 0
-148 -84 0
-148 55 0
148 93 85 68 14 97 39 90 16 84 -55 0
-149 66 0
-149 46 0
-149 21 0
-149 40 0
-149 88 0
-149 1 0
-149 -37 0
-149 -80 0
-149 27 0
-149 -71 0
149 -66 -46 -21 -40 -88 -1 37 80 -27 71 0
-150 -67 0
-150 61 0
-150 -70 0
-150 -97 0
-150 17 0
-150 16 0
-150 68 0
-150 -88 0
-150 65 0
-150 12 0
150 67 -61 70 97 -17 -16 -68 88 -65 -12 0
141 142 143 144 145 146 147 148 149 150 0
-151 4 0
-151 -96 0
-151 30 0
-151 -66 0
-151 29 0
-151 34 0
-151 -44 0
-151 23 0
-151 52 0
-151 90 0
151 -4 96 -30 66 -29 -34 44 -23 -52 -90 0
-152 93 0
-152 -83 0
-152 3 0
-152 4 0
-152 -8 0
-152 -49 0
-152 63 0
-152 -31 0
-152 -14 0
-152 -16 0
152 -93 83 -3 -4 8 49 -63 31 14 16 0
-153 57 0
-153 87 0
-153 26 0
-153 -97 0
-153 18 0
-153 -39 0
-153 -66 0
-153 12 0
-153 91 0
-153 76 0
153 -57 -87 -26 97 -18 39 66 -12 -91 -76 0
-154 4 0
-154 -99 0
-154 -61 0
-154 23 0
-154 97 0
-154 -28 0
-154 -50 0
-154 -14 0
-154 -42 0
-154 -83 0
154 -4 99 61 -23 -97 28 50 14 42 83 0
-155 82 0
-155 -36 0
-155 -37 0
-155 -33 0
-155 -38 0
-155 28 0
-155 -44 0
-155 29 0
-155 20 0
-155 -77 0
155 -82 36 37 33 38 -28 44 -29 -20 77 0
-156 -78 0
-156 55 0
-156 -93 0
-156 56 0
-156 -39 0
-156 -43 0
-156 -76 0
-156 -72 0
-156 -20 0
-156 26 0
156 78 -55 93 -56 39 43 76 72 20 -26 0
-157 -17 0
-157 -72 0
-157 -80 0
-157 -89 0
-157 -47 0
-157 -76 0
-157 -20 0
-157 -23 0
-157 49 0
-157 -24 0
157 17 72 80 89 47 76 20 23 -49 24 0
-158 22 0
-158 99 0
-158 21 0
-158 -35 0
-158 -61 0
-158 71 0
-158 27 0
-158 57 0
-158 -88 0
-158 -93 0
158 -22 -99 -21 35 61 -71 -27 -57 88 93 0
-159 11 0
-159 -73 0
-159 78 0
-159 54 0
-159 26 0
-159 95 0
-159 8 0
-159 97 0
-159 12 0
-159 50 0
159 -11 73 -78 -54 -26 -95 -8 -97 -12 -50 0
-160 90 0
-160 32 0
-160 -40 0
-160 -55 0
-160 83 0
-160 35 0
-160 94 0
-160 91 0
-160 -89 0
-160 -42 0
160 -90 -32 40 55 -83 -35 -94 -91 89 42 0
151 152 153 154 155 156 157 158 159 160 0
-161 -54 0
-161 64 0
-161 -42 0
-161 94 0
-161 -80 0
-161 38 0
-161 -6 0
-161 -17 0
-161 -5 0
-161 -82 0
161 54 -64 42 -94 80 -38 6 17 5 82 0
-162 -77 0
-162 -60 0
-162 92 0
-162 64 0
-162 -19 0
-162 29 0
-162 71 0
-162 100 0
-162 -49 0
-162 51 0
162 77 60 -92 -64 19 -29 -71 -100 49 -51 0
-163 -53 0
-163 30 0
-163 -34 0
-163 44 0
-163 62 0
-163 -36 0
-163 -6 0
-163 -75 0
-163 37 0
-163 99 0
163 53 -30 34 -44 -62 36 6 75 -37 -99 0
-164 -74 0
-164 -59 0
-164 25 0
-164 22 0
-164 33 0
-164 90 0
-164 -43 0
-164 -53 0
-164 -100 0
-164 38 0
164 74 59 -25 -22 -33 -90 43 53 100 -38 0
-165 -98 0
-165 70 0
-165 66 0
-165 -87 0
-165 9 0
-165 -83 0
-165 52 0
-165 62 0
-165 94 0
-165 25 0
165 98 -70 -66 87 -9 83 -52 -62 -94 -25 0
-166 54 0
-166 -71 0
-166 35 0
-166 -94 0
-166 27 0
-166 -59 0
-166 39 0
-166 -32 0
-166 1 0
-166 -82 0
166 -54 71 -35 94 -27 59 -39 32 -1 82 0
-167 93 0
-167 -51 0
-167 38 0
-167 78 0
-167 -21 0
-167 -42 0
-167 48 0
-167 -18 0
-167 -60 0
-167 6 0
167 -93 51 -38 -78 21 42 -48 18 60 -6 0
-168 25 0
-168 -47 0
-168 23 0
-168 -77 0
-168 -70 0
-168 90 0
-168 -64 0
-168 67 0
-168 4 0
-168 59 0
168 -25 47 -23 77 70 -90 64 -67 -4 -59 0
-169 23 0
-169 -44 0
-169 -82 0
-169 -63 0
-169 22 0
-169 -28 0
-169 -16 0
-169 -35 0
-169 -41 0
-169 -45 0
169 -23 44 82 63 -22 28 16 35 41 45 0
-170 -7 0
-170 14 0
-170 71 0
-170 -81 0
-170 9 0
-170 -26 0
-170 46 0
-170 -60 0
-170 21 0
-170 -94 0
170 7 -14 -71 81 -9 26 -46 60 -21 94 0
161 162 163 164 165 166 167 168 169 170 0
-171 43 0
-171 41 0
-171 -86 0
-171 55 0
-171 -36 0
-171 -69 0
-171 -97 0
-171 -35 0
-171 -40 0
-171 -73 0
171 -43 -41 86 -55 36 69 97 35 40 73 0
-172 30 0
-172 -90 0
-172 -50 0
-172 13 0
-172 -96 0
-172 -25 0
-172 18 0
-172 28 0
-172 27 0
-172 -77 0
172 -30 90 50 -13 96 25 -18 -28 -27 77 0
-173 26 0
-173 62 0
-173 44 0
-173 -25 0
-173 -54 0
-173 51 0
-173 29 0
-173 -76 0
-173 -97 0
-173 -86 0
173 -26 -62 -44 25 54 -51 -29 76 97 86 0
-174 -77 0
-174 -7 0
-174 21 0
-174 -74 0
-174 -82 0
-174 10 0
-174 -87 0
-174 96 0
-174 37 0
-174 -56 0
174 77 7 -21 74 82 -10 87 -96 -37 56 0
-175 12 0
-175 -22 0
-175 93 0
-175 -50 0
-175 72 0
-175 -20 0
-175 -31 0
-175 96 0
-175 42 0
-175 -83 0
175 -12 22 -93 50 -72 20 31 -96 -42 83 0
-176 -23 0
-176 87 0
-176 58 0
-176 64 0
-176 29 0
-176 -39 0
-176 61 0
-176 41 0
-176 -4 0
-176 33 0
176 23 -87 -58 -64 -29 39 -61 -41 4 -33 0
-177 -80 0
-177 72 0
-177 -34 0
-177 -86 0
-177 -44 0
-177 -10 0
-177 -49 0
-177 94 0
-177 11 0
-177 21 0
177 80 -72 34 86 44 10 49 -94 -11 -21 0
-178 -3 0
-178 46 0
-178 65 0
-178 69 0
-178 83 0
-178 -78 0
-178 -39 0
-178 58 0
-178 81 0
-178 26 0
178 3 -46 -65 -69 -83 78 39 -58 -81 -26 0
-179 76 0
-179 67 0
-179 70 0
-179 93 0
-179 22 0
-179 -88 0
-179 -21 0
-179 48 0
-179 49 0
-179 -9 0
179 -76 -67 -70 -93 -22 88 21 -48 -49 9 0
-180 70 0
-180 47 0
-180 -99 0
-180 97 0
-180 94 0
-180 33 0
-180 -28 0
-180 48 0
-180 52 0
-180 -34 0
180 -70 -47 99 -97 -94 -33 28 -48 -52 34 0
171 172 173 174 175 176 177 178 179 180 0
-181 -92 0
-181 74 0
-181 8 0
-181 11 0
-181 3 0
-181 -44 0
-181 -56 0
-181 20 0
-181 -66 0
-181 89 0
181 92 -74 -8 -11 -3 44 56 -20 66 -89 0
-182 -11 0
-182 -6 0
-182 17 0
-182 -69 0
-182 -64 0
-182 96 0
-182 -35 0
-182 51 0
-182 -27 0
-182 -84 0
182 11 6 -17 69 64 -96 35 -51 27 84 0
-183 -98 0
-183 -68 0
-183 -49 0
-183 6 0
-183 -5 0
-183 73 0
-183 77 0
-183 -23 0
-183 -97 0
-183 -8 0
183 98 68 49 -6 5 -73 -77 23 97 8 0
-184 24 0
-184 14 0
-184 -23 0
-184 95 0
-184 -17 0
-184 -69 0
-184 -63 0
-184 -51 0
-184 41 0
-184 -4 0
184 -24 -14 23 -95 17 69 63 51 -41 4 0
-185 -80 0
-185 -81 0
-185 -35 0
-185 -49 0
-185 -1 0
-185 28 0
-185 85 0
-185 2 0
-185 -92 0
-185 65 0
185 80 81 35 49 1 -28 -85 -2 92 -65 0
-186 53 0
-186 9 0
-186 2 0
-186 -85 0
-186 8 0
-186 -15 0
-186 -61 0
-186 66 0
-186 69 0
-186 40 0
186 -53 -9 -2 85 -8 15 61 -66 -69 -40 0
-187 -81 0
-187 30 0
-187 74 0
-187 -64 0
-187 47 0
-187 -21 0
-187 58 0
-187 36 0
-187 -40 0
-187 -3 0
187 81 -30 -74 64 -47 21 -58 -36 40 3 0
-188 21 0
-188 -93 0
-188 70 0
-188 7 0
-188 -87 0
-188 -32 0
-188 -57 0
-188 53 0
-188 48 0
-188 -80 0
188 -21 93 -70 -7 87 32 57 -53 -48 80 0
-189 35 0
-189 -49 0
-189 9 0
-189 -31 0
-189 8 0
-189 21 0
-189 -65 0
-189 72 0
-189 -10 0
-189 97 0
189 -35 49 -9 31 -8 -21 65 -72 10 -97 0
-190 64 0
-190 -17 0
-190 6 0
-190 2 0
-190 19 0
-190 94 0
-190 -52 0
-190 -42 0
-190 62 0
-190 -60 0
190 -64 17 -6 -2 -19 -94 52 42 -62 60 0
181 182 183 184 185 186 187 188 189 190 0
-191 23 0
-191 -81 0
-191 9 0
-191 -92 0
-191 19 0
-191 -41 0
-191 25 0
-191 88 0
-191 -38 0
-191 31 0
191 -23 81 -9 92 -19 41 -25 -88 38 -31 0
-192 51 0
-192 -41 0
-192 83 0
-192 -15 0
-192 42 0
-192 -33 0
-192 61 0
-192 -76 0
-192 -96 0
-192 -48 0
192 -51 41 -83 15 -42 33 -61 76 96 48 0
-193 38 0
-193 22 0
-193 -54 0
-193 24 0
-193 23 0
-193 -27 0
-193 67 0
-193 75 0
-193 -73 0
-193 89 0
193 -38 -22 54 -24 -23 27 -67 -75 73 -89 0
-194 -17 0
-194 75 0
-194 85 0
-194 18 0
-194 -13 0
-194 5 0
-194 37 0
-194 66 0
-194 11 0
-194 53 0
194 17 -75 -85 -18 13 -5 -37 -66 -11 -53 0
-195 -84 0
-195 -9 0
-195 -71 0
-195 -55 0
-195 -17 0
-195 -46 0
-195 -13 0
-195 -92 0
-195 96 0
-195 88 0
195 84 9 71 55 17 46 13 92 -96 -88 0
-196 17 0
-196 -61 0
-196 -83 0
-196 96 0
-196 -7 0
-196 -46 0
-196 25 0
-196 -20 0
-196 -72 0
-196 68 0
196 -17 61 83 -96 7 46 -25 20 72 -68 0
-197 -98 0
-197 97 0
-197 -23 0
-197 -68 0
-197 13 0
-197 -49 0
-197 12 0
-197 29 0
-197 64 0
-197 86 0
197 98 -97 23 68 -13 49 -12 -29 -64 -86 0
-198 40 0
-198 -5 0
-198 -59 0
-198 -32 0
-198 -22 0
-198 -96 0
-198 -84 0
-198 -42 0
-198 -10 0
-198 83 0
198 -40 5 59 32 22 96 84 42 10 -83 0
-199 -28 0
-199 62 0
-199 46 0
-199 -2 0
-199 -24 0
-199 84 0
-199 -16 0
-199 65 0
-199 73 0
-199 -15 0
199 28 -62 -46 2 24 -84 16 -65 -73 15 0
-200 93 0
-200 54 0
-200 80 0
-200 -67 0
-200 72 0
-200 89 0
-200 -65 0
-200 -2 0
-200 -98 0
-200 74 0
200 -93 -54 -80 67 -72 -89 65 2 98 -74 0
191 192 193 194 195 196 197 198 199 200 0
